c description: Graph 3-Colorability of graph: Random 0.092-biased graph of 50 vertices
c generator: CNFgen (0.9.0)
c copyright: (C) 2012-2020 Massimo Lauria <massimo.lauria@uniroma1.it>
c url: https://massimolauria.net/cnfgen
c random seed: 37
c command line: cnfgen --seed 37 -o ./instances/n50/three_color_gnp_50vertices_p0.092_seed37_cnfgen.cnf kcolor 3 gnp 50 0.092
c
p cnf 150 494
1 2 3 0
-1 -2 0
-1 -3 0
-2 -3 0
4 5 6 0
-4 -5 0
-4 -6 0
-5 -6 0
7 8 9 0
-7 -8 0
-7 -9 0
-8 -9 0
10 11 12 0
-10 -11 0
-10 -12 0
-11 -12 0
13 14 15 0
-13 -14 0
-13 -15 0
-14 -15 0
16 17 18 0
-16 -17 0
-16 -18 0
-17 -18 0
19 20 21 0
-19 -20 0
-19 -21 0
-20 -21 0
22 23 24 0
-22 -23 0
-22 -24 0
-23 -24 0
25 26 27 0
-25 -26 0
-25 -27 0
-26 -27 0
28 29 30 0
-28 -29 0
-28 -30 0
-29 -30 0
31 32 33 0
-31 -32 0
-31 -33 0
-32 -33 0
34 35 36 0
-34 -35 0
-34 -36 0
-35 -36 0
37 38 39 0
-37 -38 0
-37 -39 0
-38 -39 0
40 41 42 0
-40 -41 0
-40 -42 0
-41 -42 0
43 44 45 0
-43 -44 0
-43 -45 0
-44 -45 0
46 47 48 0
-46 -47 0
-46 -48 0
-47 -48 0
49 50 51 0
-49 -50 0
-49 -51 0
-50 -51 0
52 53 54 0
-52 -53 0
-52 -54 0
-53 -54 0
55 56 57 0
-55 -56 0
-55 -57 0
-56 -57 0
58 59 60 0
-58 -59 0
-58 -60 0
-59 -60 0
61 62 63 0
-61 -62 0
-61 -63 0
-62 -63 0
64 65 66 0
-64 -65 0
-64 -66 0
-65 -66 0
67 68 69 0
-67 -68 0
-67 -69 0
-68 -69 0
70 71 72 0
-70 -71 0
-70 -72 0
-71 -72 0
73 74 75 0
-73 -74 0
-73 -75 0
-74 -75 0
76 77 78 0
-76 -77 0
-76 -78 0
-77 -78 0
79 80 81 0
-79 -80 0
-79 -81 0
-80 -81 0
82 83 84 0
-82 -83 0
-82 -84 0
-83 -84 0
85 86 87 0
-85 -86 0
-85 -87 0
-86 -87 0
88 89 90 0
-88 -89 0
-88 -90 0
-89 -90 0
91 92 93 0
-91 -92 0
-91 -93 0
-92 -93 0
94 95 96 0
-94 -95 0
-94 -96 0
-95 -96 0
97 98 99 0
-97 -98 0
-97 -99 0
-98 -99 0
100 101 102 0
-100 -101 0
-100 -102 0
-101 -102 0
103 104 105 0
-103 -104 0
-103 -105 0
-104 -105 0
106 107 108 0
-106 -107 0
-106 -108 0
-107 -108 0
109 110 111 0
-109 -110 0
-109 -111 0
-110 -111 0
112 113 114 0
-112 -113 0
-112 -114 0
-113 -114 0
115 116 117 0
-115 -116 0
-115 -117 0
-116 -117 0
118 119 120 0
-118 -119 0
-118 -120 0
-119 -120 0
121 122 123 0
-121 -122 0
-121 -123 0
-122 -123 0
124 125 126 0
-124 -125 0
-124 -126 0
-125 -126 0
127 128 129 0
-127 -128 0
-127 -129 0
-128 -129 0
130 131 132 0
-130 -131 0
-130 -132 0
-131 -132 0
133 134 135 0
-133 -134 0
-133 -135 0
-134 -135 0
136 137 138 0
-136 -137 0
-136 -138 0
-137 -138 0
139 140 141 0
-139 -140 0
-139 -141 0
-140 -141 0
142 143 144 0
-142 -143 0
-142 -144 0
-143 -144 0
145 146 147 0
-145 -146 0
-145 -147 0
-146 -147 0
148 149 150 0
-148 -149 0
-148 -150 0
-149 -150 0
-1 -37 0
-2 -38 0
-3 -39 0
-1 -52 0
-2 -53 0
-3 -54 0
-1 -76 0
-2 -77 0
-3 -78 0
-4 -40 0
-5 -41 0
-6 -42 0
-4 -55 0
-5 -56 0
-6 -57 0
-7 -88 0
-8 -89 0
-9 -90 0
-7 -142 0
-8 -143 0
-9 -144 0
-10 -58 0
-11 -59 0
-12 -60 0
-10 -64 0
-11 -65 0
-12 -66 0
-10 -67 0
-11 -68 0
-12 -69 0
-10 -91 0
-11 -92 0
-12 -93 0
-13 -19 0
-14 -20 0
-15 -21 0
-13 -37 0
-14 -38 0
-15 -39 0
-13 -52 0
-14 -53 0
-15 -54 0
-13 -82 0
-14 -83 0
-15 -84 0
-13 -97 0
-14 -98 0
-15 -99 0
-13 -106 0
-14 -107 0
-15 -108 0
-13 -121 0
-14 -122 0
-15 -123 0
-16 -79 0
-17 -80 0
-18 -81 0
-19 -22 0
-20 -23 0
-21 -24 0
-19 -34 0
-20 -35 0
-21 -36 0
-19 -70 0
-20 -71 0
-21 -72 0
-19 -100 0
-20 -101 0
-21 -102 0
-19 -109 0
-20 -110 0
-21 -111 0
-19 -124 0
-20 -125 0
-21 -126 0
-22 -55 0
-23 -56 0
-24 -57 0
-22 -58 0
-23 -59 0
-24 -60 0
-22 -67 0
-23 -68 0
-24 -69 0
-22 -106 0
-23 -107 0
-24 -108 0
-25 -28 0
-26 -29 0
-27 -30 0
-25 -94 0
-26 -95 0
-27 -96 0
-25 -106 0
-26 -107 0
-27 -108 0
-28 -97 0
-29 -98 0
-30 -99 0
-28 -136 0
-29 -137 0
-30 -138 0
-31 -37 0
-32 -38 0
-33 -39 0
-31 -61 0
-32 -62 0
-33 -63 0
-31 -133 0
-32 -134 0
-33 -135 0
-31 -148 0
-32 -149 0
-33 -150 0
-34 -106 0
-35 -107 0
-36 -108 0
-34 -136 0
-35 -137 0
-36 -138 0
-34 -148 0
-35 -149 0
-36 -150 0
-37 -133 0
-38 -134 0
-39 -135 0
-40 -55 0
-41 -56 0
-42 -57 0
-40 -67 0
-41 -68 0
-42 -69 0
-40 -70 0
-41 -71 0
-42 -72 0
-40 -88 0
-41 -89 0
-42 -90 0
-40 -103 0
-41 -104 0
-42 -105 0
-43 -91 0
-44 -92 0
-45 -93 0
-43 -94 0
-44 -95 0
-45 -96 0
-43 -109 0
-44 -110 0
-45 -111 0
-43 -112 0
-44 -113 0
-45 -114 0
-46 -109 0
-47 -110 0
-48 -111 0
-49 -55 0
-50 -56 0
-51 -57 0
-52 -76 0
-53 -77 0
-54 -78 0
-52 -97 0
-53 -98 0
-54 -99 0
-55 -58 0
-56 -59 0
-57 -60 0
-58 -82 0
-59 -83 0
-60 -84 0
-58 -109 0
-59 -110 0
-60 -111 0
-58 -145 0
-59 -146 0
-60 -147 0
-61 -118 0
-62 -119 0
-63 -120 0
-61 -145 0
-62 -146 0
-63 -147 0
-64 -82 0
-65 -83 0
-66 -84 0
-64 -97 0
-65 -98 0
-66 -99 0
-64 -133 0
-65 -134 0
-66 -135 0
-67 -121 0
-68 -122 0
-69 -123 0
-67 -133 0
-68 -134 0
-69 -135 0
-67 -142 0
-68 -143 0
-69 -144 0
-70 -97 0
-71 -98 0
-72 -99 0
-70 -124 0
-71 -125 0
-72 -126 0
-73 -79 0
-74 -80 0
-75 -81 0
-73 -103 0
-74 -104 0
-75 -105 0
-73 -133 0
-74 -134 0
-75 -135 0
-73 -136 0
-74 -137 0
-75 -138 0
-76 -85 0
-77 -86 0
-78 -87 0
-76 -100 0
-77 -101 0
-78 -102 0
-85 -88 0
-86 -89 0
-87 -90 0
-85 -106 0
-86 -107 0
-87 -108 0
-85 -109 0
-86 -110 0
-87 -111 0
-85 -136 0
-86 -137 0
-87 -138 0
-88 -142 0
-89 -143 0
-90 -144 0
-88 -145 0
-89 -146 0
-90 -147 0
-91 -124 0
-92 -125 0
-93 -126 0
-91 -127 0
-92 -128 0
-93 -129 0
-91 -136 0
-92 -137 0
-93 -138 0
-94 -106 0
-95 -107 0
-96 -108 0
-94 -124 0
-95 -125 0
-96 -126 0
-94 -139 0
-95 -140 0
-96 -141 0
-97 -109 0
-98 -110 0
-99 -111 0
-97 -130 0
-98 -131 0
-99 -132 0
-97 -145 0
-98 -146 0
-99 -147 0
-103 -112 0
-104 -113 0
-105 -114 0
-106 -142 0
-107 -143 0
-108 -144 0
-109 -127 0
-110 -128 0
-111 -129 0
-109 -136 0
-110 -137 0
-111 -138 0
-127 -142 0
-128 -143 0
-129 -144 0
-130 -142 0
-131 -143 0
-132 -144 0
-130 -148 0
-131 -149 0
-132 -150 0
-136 -148 0
-137 -149 0
-138 -150 0
